(set-info :smt-lib-version 2.6)
(set-logic UFNIRA)
(set-info :source |
Generated by: Geoff Sutcliffe
Generated on: 2026-03-11
Generator: TPTPWorld
Application: Benchmarking automated theorem provers
Time limit: 120.0

These benchmarks are translations from the TPTP Library (Thousands of
Problems for Theorem Provers), see http://www.cs.miami.edu/~tptp/

The TPTP is maintained by Geoff Sutcliffe, and he contributed this
selection of benchmarks to SMT-LIB.  They were exported from the
v9.2.1 realease of TPTP.
|)
(set-info :category "industrial")
(set-info :status "unknown")
; SZS status Success
(declare-sort $$unsorted 0)
(declare-sort |tptp.'S2'| 0)
(declare-sort |tptp.'S8'| 0)
(declare-sort |tptp.'S9'| 0)
(declare-sort |tptp.'S4'| 0)
(declare-sort |tptp.'S6'| 0)
(declare-sort |tptp.'S5'| 0)
(declare-sort |tptp.'S1'| 0)
(declare-sort |tptp.'S3'| 0)
(declare-sort |tptp.'S7'| 0)
(declare-fun tptp.f7 (|tptp.'S4'| |tptp.'S5'|) Real)
(declare-fun tptp.f11 () |tptp.'S5'|)
(declare-fun tptp.f20 () |tptp.'S8'|)
(declare-fun tptp.f12 (|tptp.'S6'| |tptp.'S5'|) Int)
(declare-fun tptp.f9 () |tptp.'S5'|)
(declare-fun tptp.f6 () |tptp.'S3'|)
(declare-fun tptp.f3 (|tptp.'S2'| Real) Real)
(declare-fun tptp.f15 () |tptp.'S7'|)
(declare-fun tptp.f8 () |tptp.'S4'|)
(declare-fun tptp.f10 () Real)
(declare-fun tptp.f14 (|tptp.'S7'| Int) |tptp.'S5'|)
(declare-fun tptp.f1 () |tptp.'S1'|)
(declare-fun tptp.f18 () |tptp.'S9'|)
(declare-fun tptp.f19 () |tptp.'S2'|)
(declare-fun tptp.f4 (|tptp.'S3'| Real) |tptp.'S2'|)
(declare-fun tptp.f16 (|tptp.'S8'| Int) Int)
(declare-fun tptp.f5 () |tptp.'S3'|)
(declare-fun tptp.f2 () |tptp.'S1'|)
(declare-fun tptp.f17 (|tptp.'S9'| Int) |tptp.'S8'|)
(declare-fun tptp.f13 () |tptp.'S6'|)
(assert (not (= tptp.f1 tptp.f2)))
(assert (not (< 0.0 (tptp.f3 (tptp.f4 tptp.f5 (tptp.f3 (tptp.f4 tptp.f6 (tptp.f7 tptp.f8 tptp.f9)) (* 2.0 tptp.f10))) (tptp.f7 tptp.f8 tptp.f11)))))
(assert (< 0 (tptp.f12 tptp.f13 tptp.f9)))
(assert (< (tptp.f12 tptp.f13 tptp.f9) (tptp.f12 tptp.f13 tptp.f11)))
(assert (< 0 (tptp.f12 tptp.f13 tptp.f9)))
(assert (< (tptp.f12 tptp.f13 tptp.f9) (tptp.f12 tptp.f13 tptp.f11)))
(assert (forall ((A__questionmark_v0 |tptp.'S5'|)) (<= 0.0 (tptp.f7 tptp.f8 A__questionmark_v0))))
(assert (not (= (tptp.f3 (tptp.f4 tptp.f5 tptp.f10) 2.0) 0.0)))
(assert (exists ((A__questionmark_v_0_1 Real)) (and (= A__questionmark_v_0_1 2.0) (not (= (tptp.f3 (tptp.f4 tptp.f5 tptp.f10) A__questionmark_v_0_1) A__questionmark_v_0_1)))))
(assert (< 0.0 (tptp.f3 (tptp.f4 tptp.f5 tptp.f10) 2.0)))
(assert (<= 0.0 (tptp.f3 (tptp.f4 tptp.f5 tptp.f10) 2.0)))
(assert (< (- (tptp.f3 (tptp.f4 tptp.f5 tptp.f10) 2.0)) 0.0))
(assert (exists ((A__questionmark_v_0_2 Real)) (and (= A__questionmark_v_0_2 2.0) (< (tptp.f3 (tptp.f4 tptp.f5 tptp.f10) A__questionmark_v_0_2) A__questionmark_v_0_2))))
(assert (exists ((A__questionmark_v_0_3 Real)) (and (= A__questionmark_v_0_3 2.0) (<= (tptp.f3 (tptp.f4 tptp.f5 tptp.f10) A__questionmark_v_0_3) A__questionmark_v_0_3))))
(assert (forall ((A__questionmark_v0 |tptp.'S2'|) (A__questionmark_v1 Real) (A__questionmark_v2 Real)) (exists ((A__questionmark_v_0_4 Real) (A__questionmark_v_1_5 Real)) (and (= A__questionmark_v_0_4 (tptp.f3 A__questionmark_v0 A__questionmark_v1)) (= A__questionmark_v_1_5 (tptp.f3 A__questionmark_v0 A__questionmark_v2)) (exists ((A__questionmark_v_2_6 |tptp.'S2'|)) (and (= A__questionmark_v_2_6 (tptp.f4 tptp.f6 (tptp.f3 (tptp.f4 tptp.f5 (- A__questionmark_v_1_5 A__questionmark_v_0_4)) (- A__questionmark_v2 A__questionmark_v1)))) (= (- A__questionmark_v_0_4 (tptp.f3 A__questionmark_v_2_6 A__questionmark_v1)) (- A__questionmark_v_1_5 (tptp.f3 A__questionmark_v_2_6 A__questionmark_v2)))))))))
(assert (forall ((A__questionmark_v0 Real) (A__questionmark_v1 Real)) (exists ((A__questionmark_v_0_7 |tptp.'S2'|)) (and (= A__questionmark_v_0_7 (tptp.f4 tptp.f6 A__questionmark_v0)) (= (tptp.f3 (tptp.f4 tptp.f5 (tptp.f3 A__questionmark_v_0_7 A__questionmark_v1)) (tptp.f3 A__questionmark_v_0_7 A__questionmark_v0)) (tptp.f3 (tptp.f4 tptp.f5 A__questionmark_v1) A__questionmark_v0))))))
(assert (forall ((A__questionmark_v0 Real) (A__questionmark_v1 Real) (A__questionmark_v2 Real)) (exists ((A__questionmark_v_0_8 |tptp.'S2'|)) (and (= A__questionmark_v_0_8 (tptp.f4 tptp.f6 A__questionmark_v0)) (= (tptp.f3 A__questionmark_v_0_8 (tptp.f3 (tptp.f4 tptp.f5 A__questionmark_v1) A__questionmark_v2)) (tptp.f3 (tptp.f4 tptp.f5 (tptp.f3 A__questionmark_v_0_8 A__questionmark_v1)) A__questionmark_v2))))))
(assert (forall ((A__questionmark_v0 Real) (A__questionmark_v1 Real) (A__questionmark_v2 Real) (A__questionmark_v3 Real)) (= (tptp.f3 (tptp.f4 tptp.f6 (tptp.f3 (tptp.f4 tptp.f5 A__questionmark_v0) A__questionmark_v1)) (tptp.f3 (tptp.f4 tptp.f5 A__questionmark_v2) A__questionmark_v3)) (tptp.f3 (tptp.f4 tptp.f5 (tptp.f3 (tptp.f4 tptp.f6 A__questionmark_v0) A__questionmark_v2)) (tptp.f3 (tptp.f4 tptp.f6 A__questionmark_v1) A__questionmark_v3)))))
(assert (forall ((A__questionmark_v0 |tptp.'S5'|)) (= (* (tptp.f7 tptp.f8 A__questionmark_v0) 4.0) (tptp.f7 tptp.f8 (tptp.f14 tptp.f15 (* 4 (tptp.f12 tptp.f13 A__questionmark_v0)))))))
(assert (forall ((A__questionmark_v0 |tptp.'S5'|) (A__questionmark_v1 |tptp.'S5'|)) (= (tptp.f7 tptp.f8 (tptp.f14 tptp.f15 (tptp.f16 (tptp.f17 tptp.f18 (tptp.f12 tptp.f13 A__questionmark_v0)) (tptp.f12 tptp.f13 A__questionmark_v1)))) (tptp.f3 (tptp.f4 tptp.f6 (tptp.f7 tptp.f8 A__questionmark_v0)) (tptp.f7 tptp.f8 A__questionmark_v1)))))
(assert (forall ((A__questionmark_v0 Real)) (exists ((A__questionmark_v_0_9 Real)) (and (= A__questionmark_v_0_9 (tptp.f3 tptp.f19 A__questionmark_v0)) (= (tptp.f3 (tptp.f4 tptp.f6 A__questionmark_v_0_9) A__questionmark_v_0_9) (tptp.f3 (tptp.f4 tptp.f6 A__questionmark_v0) A__questionmark_v0))))))
(assert (forall ((A__questionmark_v0 Int)) (exists ((A__questionmark_v_0_10 Int)) (and (= A__questionmark_v_0_10 (tptp.f16 tptp.f20 A__questionmark_v0)) (= (tptp.f16 (tptp.f17 tptp.f18 A__questionmark_v_0_10) A__questionmark_v_0_10) (tptp.f16 (tptp.f17 tptp.f18 A__questionmark_v0) A__questionmark_v0))))))
(assert (forall ((A__questionmark_v0 Real) (A__questionmark_v1 Real)) (= (tptp.f3 tptp.f19 (tptp.f3 (tptp.f4 tptp.f6 A__questionmark_v0) A__questionmark_v1)) (tptp.f3 (tptp.f4 tptp.f6 (tptp.f3 tptp.f19 A__questionmark_v0)) (tptp.f3 tptp.f19 A__questionmark_v1)))))
(assert (forall ((A__questionmark_v0 Int) (A__questionmark_v1 Int)) (= (tptp.f16 tptp.f20 (tptp.f16 (tptp.f17 tptp.f18 A__questionmark_v0) A__questionmark_v1)) (tptp.f16 (tptp.f17 tptp.f18 (tptp.f16 tptp.f20 A__questionmark_v0)) (tptp.f16 tptp.f20 A__questionmark_v1)))))
(assert (forall ((A__questionmark_v0 Real) (A__questionmark_v1 Real)) (= (tptp.f3 tptp.f19 (tptp.f3 (tptp.f4 tptp.f5 A__questionmark_v0) A__questionmark_v1)) (tptp.f3 (tptp.f4 tptp.f5 (tptp.f3 tptp.f19 A__questionmark_v0)) (tptp.f3 tptp.f19 A__questionmark_v1)))))
(assert (forall ((A__questionmark_v0 Real) (A__questionmark_v1 Real) (A__questionmark_v2 Real)) (exists ((A__questionmark_v_0_11 |tptp.'S2'|)) (and (= A__questionmark_v_0_11 (tptp.f4 tptp.f6 A__questionmark_v0)) (=> (< 0.0 A__questionmark_v0) (=> (< A__questionmark_v1 A__questionmark_v2) (< (tptp.f3 A__questionmark_v_0_11 A__questionmark_v1) (tptp.f3 A__questionmark_v_0_11 A__questionmark_v2))))))))
(assert (forall ((A__questionmark_v0 Real) (A__questionmark_v1 Real)) (exists ((A__questionmark_v_0_12 Real)) (and (= A__questionmark_v_0_12 0.0) (=> (< A__questionmark_v_0_12 A__questionmark_v0) (=> (< A__questionmark_v_0_12 A__questionmark_v1) (< A__questionmark_v_0_12 (tptp.f3 (tptp.f4 tptp.f6 A__questionmark_v0) A__questionmark_v1))))))))
(assert (forall ((A__questionmark_v0 Real) (A__questionmark_v1 Real) (A__questionmark_v2 Real)) (exists ((A__questionmark_v_0_13 |tptp.'S2'|)) (and (= A__questionmark_v_0_13 (tptp.f4 tptp.f6 A__questionmark_v0)) (=> (< 0.0 A__questionmark_v0) (= (<= (tptp.f3 A__questionmark_v_0_13 A__questionmark_v1) (tptp.f3 A__questionmark_v_0_13 A__questionmark_v2)) (<= A__questionmark_v1 A__questionmark_v2)))))))
(assert (forall ((A__questionmark_v0 Real) (A__questionmark_v1 Real) (A__questionmark_v2 Real)) (=> (< 0.0 A__questionmark_v0) (= (<= (tptp.f3 (tptp.f4 tptp.f6 A__questionmark_v1) A__questionmark_v0) (tptp.f3 (tptp.f4 tptp.f6 A__questionmark_v2) A__questionmark_v0)) (<= A__questionmark_v1 A__questionmark_v2)))))
(assert (forall ((A__questionmark_v0 Real) (A__questionmark_v1 Real) (A__questionmark_v2 Real)) (=> (< 0.0 A__questionmark_v0) (= (< (tptp.f3 (tptp.f4 tptp.f6 A__questionmark_v1) A__questionmark_v0) (tptp.f3 (tptp.f4 tptp.f6 A__questionmark_v2) A__questionmark_v0)) (< A__questionmark_v1 A__questionmark_v2)))))
(assert (forall ((A__questionmark_v0 Real) (A__questionmark_v1 Real) (A__questionmark_v2 Real)) (exists ((A__questionmark_v_0_14 |tptp.'S2'|)) (and (= A__questionmark_v_0_14 (tptp.f4 tptp.f6 A__questionmark_v0)) (=> (not (= A__questionmark_v0 0.0)) (= (= (tptp.f3 A__questionmark_v_0_14 A__questionmark_v1) (tptp.f3 A__questionmark_v_0_14 A__questionmark_v2)) (= A__questionmark_v1 A__questionmark_v2)))))))
(assert (forall ((A__questionmark_v0 Real) (A__questionmark_v1 Real) (A__questionmark_v2 Real)) (=> (not (= A__questionmark_v0 0.0)) (= (= (tptp.f3 (tptp.f4 tptp.f6 A__questionmark_v1) A__questionmark_v0) (tptp.f3 (tptp.f4 tptp.f6 A__questionmark_v2) A__questionmark_v0)) (= A__questionmark_v1 A__questionmark_v2)))))
(assert (forall ((A__questionmark_v0 Real) (A__questionmark_v1 Real)) (exists ((A__questionmark_v_0_15 Real)) (and (= A__questionmark_v_0_15 0.0) (= (= (+ (tptp.f3 (tptp.f4 tptp.f6 A__questionmark_v0) A__questionmark_v0) (tptp.f3 (tptp.f4 tptp.f6 A__questionmark_v1) A__questionmark_v1)) A__questionmark_v_0_15) (and (= A__questionmark_v0 A__questionmark_v_0_15) (= A__questionmark_v1 A__questionmark_v_0_15)))))))
(assert (forall ((A__questionmark_v0 Real) (A__questionmark_v1 Real) (A__questionmark_v2 Real)) (= (tptp.f3 (tptp.f4 tptp.f6 (+ A__questionmark_v0 A__questionmark_v1)) A__questionmark_v2) (+ (tptp.f3 (tptp.f4 tptp.f6 A__questionmark_v0) A__questionmark_v2) (tptp.f3 (tptp.f4 tptp.f6 A__questionmark_v1) A__questionmark_v2)))))
(assert (forall ((A__questionmark_v0 Real) (A__questionmark_v1 Real) (A__questionmark_v2 Real)) (exists ((A__questionmark_v_0_16 |tptp.'S2'|)) (and (= A__questionmark_v_0_16 (tptp.f4 tptp.f6 A__questionmark_v0)) (= (tptp.f3 (tptp.f4 tptp.f6 (tptp.f3 A__questionmark_v_0_16 A__questionmark_v1)) A__questionmark_v2) (tptp.f3 A__questionmark_v_0_16 (tptp.f3 (tptp.f4 tptp.f6 A__questionmark_v1) A__questionmark_v2)))))))
(assert (forall ((A__questionmark_v0 Real) (A__questionmark_v1 Real)) (= (tptp.f3 (tptp.f4 tptp.f6 A__questionmark_v0) A__questionmark_v1) (tptp.f3 (tptp.f4 tptp.f6 A__questionmark_v1) A__questionmark_v0))))
(assert (forall ((A__questionmark_v0 Real) (A__questionmark_v1 Real)) (<= (- (tptp.f3 (tptp.f4 tptp.f6 A__questionmark_v0) A__questionmark_v0)) (tptp.f3 (tptp.f4 tptp.f6 A__questionmark_v1) A__questionmark_v1))))
(assert (forall ((A__questionmark_v0 Real)) (exists ((A__questionmark_v_0_17 Real)) (and (= A__questionmark_v_0_17 0.0) (= (not (< A__questionmark_v_0_17 (tptp.f3 (tptp.f4 tptp.f6 A__questionmark_v0) A__questionmark_v0))) (= A__questionmark_v0 A__questionmark_v_0_17))))))
(assert (forall ((A__questionmark_v0 |tptp.'S5'|)) (= (tptp.f14 tptp.f15 (tptp.f12 tptp.f13 A__questionmark_v0)) A__questionmark_v0)))
(assert (forall ((A__questionmark_v0 Int)) (=> (<= 0 A__questionmark_v0) (= (tptp.f12 tptp.f13 (tptp.f14 tptp.f15 A__questionmark_v0)) A__questionmark_v0))))
(assert (forall ((A__questionmark_v0 Int)) (=> (< A__questionmark_v0 0) (= (tptp.f12 tptp.f13 (tptp.f14 tptp.f15 A__questionmark_v0)) 0))))
(check-sat)
